NAME : auto_generated
COMMENT : Automatically generated TSP instance
TYPE : TSP
DIMENSION : 25
EDGE_WEIGHT_TYPE : EUC_2D
NODE_COORD_SECTION
1 93 79
2 95 94
3 62 52
4 45 98
5 61 75
6 3 98
7 8 88
8 91 1
9 79 57
10 39 61
11 4 24
12 20 3
13 68 61
14 33 53
15 8 11
16 6 95
17 22 55
18 80 57
19 42 90
20 38 13
21 16 79
22 97 15
23 77 90
24 75 17
25 6 25
EOF
